2 0 1
1 3 4
2 5 6
13 9 7
28 11 8
33 16 10
35 19 12
36 21 14
37 22 15
39 23 17
41 24 18
43 29 20
44 30 25
46 31 26
47 42 27
49 57 32
54 62 34
55 64 38
56 65 40
61 66 45
63 68 48
67 70 50
69 72 51
74 73 52
77 75 53
79 76 58
80 78 59
81 83 60
82 84 71
87 85 86
